#######################################
### Exact MIP solver for the HHCRSP ###
#######################################
-- Instance file: new-instances/HHCRSP_100_20_98_1.2_R_C.txt
-- Max threads: 4
-- Time limit: 999999 seconds
-- Use initial solution: No
Trivial flow violations prevented generating 44468 variables.
Model exported.
Version identifier: 20.1.0.0 | 2020-11-10 | 9bedb6d68
CPXPARAM_Threads                                 4
CPXPARAM_TimeLimit                               999999
Parallel mode: deterministic, using up to 4 threads for concurrent optimization:
 * Starting dual Simplex on 1 thread...
 * Starting Barrier on 3 threads...
Tried aggregator 1 time.
LP Presolve eliminated 5736 rows and 1606 columns.
Reduced LP has 58518 rows, 56133 columns, and 679666 nonzeros.
Presolve time = 0.33 sec. (174.54 ticks)
Symmetry aggregator did 71936 additional substitutions.

Iteration log . . .
Iteration:     1   Dual objective     =             0.000000

Dual crossover.
  Dual:  Fixing 227 variables.
      226 DMoves:  Infeasibility  7.30526826e-14  Objective  1.36666667e+02
        0 DMoves:  Infeasibility  1.14630535e-13  Objective  1.36666667e+02
  Dual:  Pushed 3, exchanged 224.
  Primal:  Fixing 157 variables.
      156 PMoves:  Infeasibility  3.83026943e-15  Objective  1.36666667e+02
        0 PMoves:  Infeasibility  4.38538095e-15  Objective  1.36666667e+02
  Primal:  Pushed 115, exchanged 42.

Dual simplex solved model.


Solution status from MIP model:
-- Processing time: 0.576 sec.
-- Memory used: 125.104 MB
-- Best bound: inf
-- Obj value: 136.667
-- Gap: inf%
-- Total distance: 410
-- Total tardiness: 0
-- Largest tardiness: 0
